peakDumbCharging = 7400; 
Machine = anon_enum(16); 
machineSpeed = [3700,3700,3700,3700,3700,3700,3700,3700,3700,3700,3700,3700,3700,3700,3700,3700]; 
machineLoad = [3700,3700,3700,3700,3700,3700,3700,3700,3700,3700,3700,3700,3700,3700,3700,3700]; 
Car = anon_enum(7); 
demandCar = [19240,4560,3560,6000,10960,27360,1840]; 
arrivalCar = [77,64,62,60,45,42,22]; 
departureCar = [84,66,64,63,49,54,23]; 
